9
-1 -1 84 2 50 19 60 -1 67 
77 -1 -1 38 32 -1 100 54 -1 
58 44 -1 73 65 5 99 64 2 
-1 51 44 -1 -1 15 65 100 37 
71 19 37 49 -1 50 35 20 93 
26 50 31 30 12 -1 -1 99 24 
7 58 35 41 48 78 -1 -1 17 
92 52 77 48 15 73 -1 -1 9 
63 28 72 95 66 39 11 18 -1 
